50 371096080
13299590 3299590
2659918 659918
21279344 5279344
18619426 4619426
14695792 10695792
58783168 42783168
7347896 5347896
73478960 53478960
14695792 10695792
2659918 659918
26599180 6599180
66131064 48131064
44087376 32087376
44087376 32087376
14695792 10695792
66131064 48131064
7979754 1979754
21279344 5279344
29391584 21391584
29391584 21391584
15959508 3959508
7347896 5347896
73478960 53478960
29391584 21391584
23939262 5939262
18619426 4619426
21279344 5279344
10639672 2639672
22043688 16043688
36739480 26739480
13299590 3299590
36739480 26739480
73478960 53478960
58783168 42783168
13299590 3299590
13299590 3299590
29391584 21391584
23939262 5939262
5319836 1319836
2659918 659918
21279344 5279344
2659918 659918
7979754 1979754
51435272 37435272
10639672 2639672
10639672 2639672
18619426 4619426
14695792 10695792
10639672 2639672
2659918 659918
